c FILE: i080-115

c SOURCE: From steinlib

c DESCRIPTION: Steinlib instance with 80 nodes and 350 edges.

p edge 80 350
e 1 6
e 1 12
e 1 16
e 1 23
e 1 24
e 1 41
e 1 48
e 1 63
e 1 73
e 1 74
e 2 13
e 2 23
e 2 24
e 2 28
e 2 39
e 2 45
e 2 46
e 2 50
e 2 51
e 2 59
e 2 62
e 2 67
e 2 75
e 2 80
e 3 7
e 3 41
e 3 46
e 3 53
e 3 66
e 4 13
e 4 14
e 4 24
e 4 31
e 4 40
e 4 50
e 4 68
e 4 71
e 5 19
e 5 36
e 5 40
e 5 62
e 5 70
e 6 16
e 6 24
e 6 26
e 6 29
e 6 53
e 6 64
e 7 24
e 7 43
e 7 53
e 7 65
e 7 74
e 8 15
e 8 38
e 8 48
e 8 55
e 8 60
e 8 75
e 9 20
e 9 25
e 9 54
e 9 56
e 9 57
e 9 63
e 9 75
e 10 11
e 10 25
e 10 26
e 10 36
e 11 24
e 11 29
e 11 42
e 11 43
e 11 55
e 11 61
e 11 64
e 11 66
e 11 74
e 12 13
e 12 14
e 12 22
e 12 30
e 12 38
e 12 43
e 12 52
e 12 60
e 12 71
e 13 21
e 13 23
e 13 34
e 13 37
e 13 41
e 13 43
e 13 46
e 13 48
e 13 49
e 13 59
e 13 61
e 13 66
e 13 69
e 13 79
e 13 80
e 14 21
e 14 30
e 14 36
e 14 52
e 14 63
e 14 72
e 14 76
e 15 24
e 15 26
e 15 38
e 15 41
e 15 54
e 15 62
e 15 75
e 15 77
e 15 78
e 16 21
e 16 23
e 16 32
e 17 24
e 17 26
e 17 44
e 17 52
e 17 54
e 17 65
e 17 79
e 17 80
e 18 20
e 18 30
e 18 36
e 18 48
e 18 79
e 19 20
e 19 29
e 19 33
e 19 47
e 19 54
e 19 57
e 19 62
e 19 69
e 19 74
e 19 75
e 20 22
e 20 48
e 20 50
e 20 54
e 20 55
e 20 77
e 20 79
e 21 36
e 21 48
e 21 74
e 21 78
e 22 57
e 22 75
e 23 25
e 23 37
e 23 39
e 23 71
e 23 80
e 24 26
e 24 53
e 24 56
e 24 60
e 24 61
e 24 64
e 24 65
e 24 76
e 24 80
e 25 30
e 25 39
e 25 45
e 25 60
e 25 61
e 25 76
e 25 77
e 26 43
e 26 45
e 26 58
e 26 64
e 26 71
e 26 76
e 26 78
e 27 30
e 27 37
e 27 46
e 27 50
e 27 51
e 27 57
e 27 69
e 27 78
e 28 33
e 28 46
e 28 52
e 28 60
e 29 34
e 29 37
e 29 41
e 29 50
e 29 55
e 29 64
e 30 44
e 30 50
e 30 53
e 31 38
e 31 39
e 31 44
e 31 45
e 31 70
e 31 72
e 32 38
e 32 46
e 32 58
e 32 69
e 33 35
e 33 56
e 33 58
e 33 66
e 34 35
e 34 45
e 34 46
e 34 56
e 34 79
e 35 40
e 35 47
e 35 51
e 35 52
e 35 58
e 35 59
e 35 67
e 35 74
e 35 77
e 36 42
e 36 46
e 36 62
e 36 64
e 36 69
e 36 72
e 36 75
e 37 45
e 37 50
e 37 61
e 37 77
e 38 42
e 38 48
e 38 61
e 38 65
e 38 71
e 38 76
e 38 77
e 39 47
e 39 61
e 39 64
e 39 65
e 39 80
e 40 44
e 40 54
e 40 65
e 41 50
e 42 45
e 42 48
e 42 51
e 42 59
e 42 65
e 43 56
e 43 64
e 44 53
e 44 60
e 44 65
e 44 66
e 44 71
e 45 46
e 45 52
e 45 55
e 45 62
e 45 80
e 46 49
e 46 53
e 46 65
e 46 67
e 46 73
e 47 67
e 47 72
e 47 75
e 48 51
e 48 75
e 49 56
e 49 66
e 49 69
e 49 73
e 50 56
e 50 61
e 50 65
e 50 70
e 51 55
e 51 65
e 51 76
e 52 55
e 52 69
e 52 77
e 53 56
e 53 57
e 53 59
e 53 60
e 53 80
e 54 60
e 54 65
e 54 71
e 54 73
e 54 79
e 55 67
e 55 70
e 55 75
e 56 57
e 57 78
e 58 64
e 58 72
e 59 63
e 59 64
e 59 71
e 60 73
e 61 63
e 61 69
e 62 70
e 62 71
e 62 80
e 63 65
e 63 68
e 63 76
e 64 76
e 65 78
e 66 67
e 66 70
e 66 71
e 66 78
e 67 72
e 67 79
e 68 76
e 68 79
e 69 77
e 70 78
e 70 80
e 71 76
e 71 78
e 73 76
e 73 78
e 74 79
